n=8;
hearts=35;
clubs=2;
spades=19;
diamonds=62;
blocked=15;
m=array2d(1..n, 1..n,[
	_,_,3,5,_,5,4,3,
	_,5,_,_,5,_,_,5,
	5,5,5,_,3,_,_,_,
	_,_,1,5,5,4,_,_,
	5,4,_,5,_,_,_,_,
	_,_,_,4,_,_,_,_,
	3,_,_,_,_,5,5,_,
	_,_,_,_,_,_,5,_
]);
